instances/shortest_path/discrete_knapsack_uncertainty/nohadani_6_19.lp
\ Model nohadani_6_19
\ LP format - for model browsing. Use MPS format to capture full model detail.
\ Signature: 0x9d6f60db6d04e09d
Minimize
  72.11102550927978 y[0,1] + 43.41658669218482 y[0,2]
   + 11.04536101718726 y[0,3] + 65.79513659838392 y[0,5]
   + 72.11102550927978 y[1,0] + 29.06888370749727 y[1,2]
   + 61.46543744251723 y[1,3] + 33.24154027718932 y[1,5]
   + 43.41658669218482 y[2,0] + 29.06888370749727 y[2,1]
   + 32.57299494980466 y[2,3] + 73.05477397131553 y[2,4]
   + 37.12142238654117 y[2,5] + 11.04536101718726 y[3,0]
   + 61.46543744251723 y[3,1] + 32.57299494980466 y[3,2]
   + 58.00862004909271 y[3,5] + 73.05477397131553 y[4,2]
   + 41.86884283091664 y[4,5] + 65.79513659838392 y[5,0]
   + 33.24154027718932 y[5,1] + 37.12142238654117 y[5,2]
   + 58.00862004909271 y[5,3] + 41.86884283091664 y[5,4] + x[0,1] + x[0,2]
   + x[0,3] + x[0,5] + x[1,0] + x[1,2] + x[1,3] + x[1,5] + x[2,0] + x[2,1]
   + x[2,3] + x[2,4] + x[2,5] + x[3,0] + x[3,1] + x[3,2] + x[3,5] + x[4,2]
   + x[4,5] + x[5,0] + x[5,1] + x[5,2] + x[5,3] + x[5,4]
   + 7.211102550927979 r[0,1] + 4.341658669218482 r[0,2]
   + 1.104536101718726 r[0,3] + 6.579513659838392 r[0,5]
   + 7.211102550927979 r[1,0] + 2.906888370749727 r[1,2]
   + 6.146543744251724 r[1,3] + 3.324154027718933 r[1,5]
   + 4.341658669218482 r[2,0] + 2.906888370749727 r[2,1]
   + 3.257299494980466 r[2,3] + 7.305477397131553 r[2,4]
   + 3.712142238654117 r[2,5] + 1.104536101718726 r[3,0]
   + 6.146543744251724 r[3,1] + 3.257299494980466 r[3,2]
   + 5.800862004909271 r[3,5] + 7.305477397131553 r[4,2]
   + 4.186884283091664 r[4,5] + 6.579513659838392 r[5,0]
   + 3.324154027718933 r[5,1] + 3.712142238654117 r[5,2]
   + 5.800862004909271 r[5,3] + 4.186884283091664 r[5,4]
Subject To
 flow_cons_inner_nodes[1]: y[0,1] - y[1,0] - y[1,2] - y[1,3] - y[1,5]
   + y[2,1] + y[3,1] + y[5,1] = 0
 flow_cons_inner_nodes[2]: y[0,2] + y[1,2] - y[2,0] - y[2,1] - y[2,3]
   - y[2,4] - y[2,5] + y[3,2] + y[4,2] + y[5,2] = 0
 flow_cons_inner_nodes[3]: y[0,3] + y[1,3] + y[2,3] - y[3,0] - y[3,1]
   - y[3,2] - y[3,5] + y[5,3] = 0
 flow_cons_inner_nodes[5]: y[0,5] + y[1,5] + y[2,5] + y[3,5] + y[4,5]
   - y[5,0] - y[5,1] - y[5,2] - y[5,3] - y[5,4] = 0
 flow_cons_source: y[0,1] + y[0,2] + y[0,3] + y[0,5] - y[1,0] - y[2,0]
   - y[3,0] - y[5,0] = 1
 flow_cons_target: y[2,4] - y[4,2] - y[4,5] + y[5,4] = 1
 primal_lower: 1.84816490547299 x[0,1] + 2.385580558121852 x[0,2]
   + 2.859404174110324 x[0,3] + 3.186521830662572 x[0,5]
   + 0.2060122246807325 x[1,0] + 3.318934087868051 x[1,2]
   + 1.878564043889511 x[1,3] + 3.524556945729516 x[1,5]
   + 1.293846337565267 x[2,0] + 2.040772254689172 x[2,1]
   + 3.6510674792469 x[2,3] + 3.713052704940282 x[2,4]
   + 2.329986599107093 x[2,5] + 3.45124365708871 x[3,0]
   + 2.092308081302887 x[3,1] + 3.735415231189921 x[3,2]
   + 0.6045450221146959 x[3,5] + 1.689575296991578 x[4,2]
   + 1.480913204162854 x[4,5] + 0.4058297997738387 x[5,0]
   + 1.008820931908051 x[5,1] + 3.524471037709766 x[5,2]
   + 2.70276853853509 x[5,3] + 3.344345520282491 x[5,4] + 2 u[0,1]
   + 6 u[0,2] + 8 u[0,3] + 9 u[0,5] + 38 u[1,0] + 84 u[1,2] + 47 u[1,3]
   + 82 u[1,5] + 15 u[2,0] + 48 u[2,1] + 86 u[2,3] + 61 u[2,4] + 18 u[2,5]
   + 10 u[3,0] + 11 u[3,1] + 3 u[3,2] + 87 u[3,5] + 26 u[4,2] + 79 u[4,5]
   + 48 u[5,0] + 91 u[5,1] + 34 u[5,2] + 10 u[5,3] + 33 u[5,4] <= 91
 mccormick1[0,1]: - u[0,1] + r[0,1] <= 0
 mccormick1[0,2]: - u[0,2] + r[0,2] <= 0
 mccormick1[0,3]: - u[0,3] + r[0,3] <= 0
 mccormick1[0,5]: - u[0,5] + r[0,5] <= 0
 mccormick1[1,0]: - u[1,0] + r[1,0] <= 0
 mccormick1[1,2]: - u[1,2] + r[1,2] <= 0
 mccormick1[1,3]: - u[1,3] + r[1,3] <= 0
 mccormick1[1,5]: - u[1,5] + r[1,5] <= 0
 mccormick1[2,0]: - u[2,0] + r[2,0] <= 0
 mccormick1[2,1]: - u[2,1] + r[2,1] <= 0
 mccormick1[2,3]: - u[2,3] + r[2,3] <= 0
 mccormick1[2,4]: - u[2,4] + r[2,4] <= 0
 mccormick1[2,5]: - u[2,5] + r[2,5] <= 0
 mccormick1[3,0]: - u[3,0] + r[3,0] <= 0
 mccormick1[3,1]: - u[3,1] + r[3,1] <= 0
 mccormick1[3,2]: - u[3,2] + r[3,2] <= 0
 mccormick1[3,5]: - u[3,5] + r[3,5] <= 0
 mccormick1[4,2]: - u[4,2] + r[4,2] <= 0
 mccormick1[4,5]: - u[4,5] + r[4,5] <= 0
 mccormick1[5,0]: - u[5,0] + r[5,0] <= 0
 mccormick1[5,1]: - u[5,1] + r[5,1] <= 0
 mccormick1[5,2]: - u[5,2] + r[5,2] <= 0
 mccormick1[5,3]: - u[5,3] + r[5,3] <= 0
 mccormick1[5,4]: - u[5,4] + r[5,4] <= 0
 mccormick2[0,1]: - y[0,1] + r[0,1] <= 0
 mccormick2[0,2]: - y[0,2] + r[0,2] <= 0
 mccormick2[0,3]: - y[0,3] + r[0,3] <= 0
 mccormick2[0,5]: - y[0,5] + r[0,5] <= 0
 mccormick2[1,0]: - y[1,0] + r[1,0] <= 0
 mccormick2[1,2]: - y[1,2] + r[1,2] <= 0
 mccormick2[1,3]: - y[1,3] + r[1,3] <= 0
 mccormick2[1,5]: - y[1,5] + r[1,5] <= 0
 mccormick2[2,0]: - y[2,0] + r[2,0] <= 0
 mccormick2[2,1]: - y[2,1] + r[2,1] <= 0
 mccormick2[2,3]: - y[2,3] + r[2,3] <= 0
 mccormick2[2,4]: - y[2,4] + r[2,4] <= 0
 mccormick2[2,5]: - y[2,5] + r[2,5] <= 0
 mccormick2[3,0]: - y[3,0] + r[3,0] <= 0
 mccormick2[3,1]: - y[3,1] + r[3,1] <= 0
 mccormick2[3,2]: - y[3,2] + r[3,2] <= 0
 mccormick2[3,5]: - y[3,5] + r[3,5] <= 0
 mccormick2[4,2]: - y[4,2] + r[4,2] <= 0
 mccormick2[4,5]: - y[4,5] + r[4,5] <= 0
 mccormick2[5,0]: - y[5,0] + r[5,0] <= 0
 mccormick2[5,1]: - y[5,1] + r[5,1] <= 0
 mccormick2[5,2]: - y[5,2] + r[5,2] <= 0
 mccormick2[5,3]: - y[5,3] + r[5,3] <= 0
 mccormick2[5,4]: - y[5,4] + r[5,4] <= 0
 mccormick3[0,1]: - y[0,1] - u[0,1] + r[0,1] >= -1
 mccormick3[0,2]: - y[0,2] - u[0,2] + r[0,2] >= -1
 mccormick3[0,3]: - y[0,3] - u[0,3] + r[0,3] >= -1
 mccormick3[0,5]: - y[0,5] - u[0,5] + r[0,5] >= -1
 mccormick3[1,0]: - y[1,0] - u[1,0] + r[1,0] >= -1
 mccormick3[1,2]: - y[1,2] - u[1,2] + r[1,2] >= -1
 mccormick3[1,3]: - y[1,3] - u[1,3] + r[1,3] >= -1
 mccormick3[1,5]: - y[1,5] - u[1,5] + r[1,5] >= -1
 mccormick3[2,0]: - y[2,0] - u[2,0] + r[2,0] >= -1
 mccormick3[2,1]: - y[2,1] - u[2,1] + r[2,1] >= -1
 mccormick3[2,3]: - y[2,3] - u[2,3] + r[2,3] >= -1
 mccormick3[2,4]: - y[2,4] - u[2,4] + r[2,4] >= -1
 mccormick3[2,5]: - y[2,5] - u[2,5] + r[2,5] >= -1
 mccormick3[3,0]: - y[3,0] - u[3,0] + r[3,0] >= -1
 mccormick3[3,1]: - y[3,1] - u[3,1] + r[3,1] >= -1
 mccormick3[3,2]: - y[3,2] - u[3,2] + r[3,2] >= -1
 mccormick3[3,5]: - y[3,5] - u[3,5] + r[3,5] >= -1
 mccormick3[4,2]: - y[4,2] - u[4,2] + r[4,2] >= -1
 mccormick3[4,5]: - y[4,5] - u[4,5] + r[4,5] >= -1
 mccormick3[5,0]: - y[5,0] - u[5,0] + r[5,0] >= -1
 mccormick3[5,1]: - y[5,1] - u[5,1] + r[5,1] >= -1
 mccormick3[5,2]: - y[5,2] - u[5,2] + r[5,2] >= -1
 mccormick3[5,3]: - y[5,3] - u[5,3] + r[5,3] >= -1
 mccormick3[5,4]: - y[5,4] - u[5,4] + r[5,4] >= -1
Bounds
Binaries
 y[0,1] y[0,2] y[0,3] y[0,5] y[1,0] y[1,2] y[1,3] y[1,5] y[2,0] y[2,1]
 y[2,3] y[2,4] y[2,5] y[3,0] y[3,1] y[3,2] y[3,5] y[4,2] y[4,5] y[5,0]
 y[5,1] y[5,2] y[5,3] y[5,4] x[0,1] x[0,2] x[0,3] x[0,5] x[1,0] x[1,2]
 x[1,3] x[1,5] x[2,0] x[2,1] x[2,3] x[2,4] x[2,5] x[3,0] x[3,1] x[3,2]
 x[3,5] x[4,2] x[4,5] x[5,0] x[5,1] x[5,2] x[5,3] x[5,4] u[0,1] u[0,2]
 u[0,3] u[0,5] u[1,0] u[1,2] u[1,3] u[1,5] u[2,0] u[2,1] u[2,3] u[2,4]
 u[2,5] u[3,0] u[3,1] u[3,2] u[3,5] u[4,2] u[4,5] u[5,0] u[5,1] u[5,2]
 u[5,3] u[5,4] r[0,1] r[0,2] r[0,3] r[0,5] r[1,0] r[1,2] r[1,3] r[1,5]
 r[2,0] r[2,1] r[2,3] r[2,4] r[2,5] r[3,0] r[3,1] r[3,2] r[3,5] r[4,2]
 r[4,5] r[5,0] r[5,1] r[5,2] r[5,3] r[5,4]
End
